letting n =  10
letting blocks =  [[1, 3], [1, 8], [2, 1], [2, 2], [3, 3], [3, 9], [4, 1], [4, 3], [4, 5], [4, 6], [6, 6], [7, 2], [7, 4], [7, 5], [7, 8], [7, 9], [8, 2], [8, 9], [9, 4], [9, 9], [9, 10], [10, 10]]
